c n orig vars 66
p cnf 68 100
1 2 -67 0
3 4 -67 0
5 6 -67 0
7 8 -67 0
9 10 -67 0
11 12 -67 0
13 14 -67 0
15 16 -67 0
17 18 -67 0
19 20 -67 0
21 22 -67 0
23 24 -67 0
25 26 -67 0
27 28 -67 0
29 30 -67 0
31 32 -67 0
33 34 -67 0
35 36 -67 0
37 43 49 55 61 -68 0
38 44 50 56 62 -68 0
39 45 51 57 63 -68 0
40 46 52 58 64 -68 0
41 47 53 59 65 -68 0
42 48 54 60 66 -68 0
-37 -38 -68 0
-37 -39 -68 0
-37 -40 -68 0
-37 -41 -68 0
-37 -42 -68 0
-38 -39 -68 0
-38 -40 -68 0
-38 -41 -68 0
-38 -42 -68 0
-39 -40 -68 0
-39 -41 -68 0
-39 -42 -68 0
-40 -41 -68 0
-40 -42 -68 0
-41 -42 -68 0
-43 -44 -68 0
-43 -45 -68 0
-43 -46 -68 0
-43 -47 -68 0
-43 -48 -68 0
-44 -45 -68 0
-44 -46 -68 0
-44 -47 -68 0
-44 -48 -68 0
-45 -46 -68 0
-45 -47 -68 0
-45 -48 -68 0
-46 -47 -68 0
-46 -48 -68 0
-47 -48 -68 0
-49 -50 -68 0
-49 -51 -68 0
-49 -52 -68 0
-49 -53 -68 0
-49 -54 -68 0
-50 -51 -68 0
-50 -52 -68 0
-50 -53 -68 0
-50 -54 -68 0
-51 -52 -68 0
-51 -53 -68 0
-51 -54 -68 0
-52 -53 -68 0
-52 -54 -68 0
-53 -54 -68 0
-55 -56 -68 0
-55 -57 -68 0
-55 -58 -68 0
-55 -59 -68 0
-55 -60 -68 0
-56 -57 -68 0
-56 -58 -68 0
-56 -59 -68 0
-56 -60 -68 0
-57 -58 -68 0
-57 -59 -68 0
-57 -60 -68 0
-58 -59 -68 0
-58 -60 -68 0
-59 -60 -68 0
-61 -62 -68 0
-61 -63 -68 0
-61 -64 -68 0
-61 -65 -68 0
-61 -66 -68 0
-62 -63 -68 0
-62 -64 -68 0
-62 -65 -68 0
-62 -66 -68 0
-63 -64 -68 0
-63 -65 -68 0
-63 -66 -68 0
-64 -65 -68 0
-64 -66 -68 0
-65 -66 -68 0
67 68 0
